NAME          
ROWS
 N  OBJ
 L  c3
 L  c4
 L  c5
 G  c1
 G  c2
COLUMNS
    MARKER    'MARKER'                 'INTORG'
     x1       c3       5
     x1       c4       4
     x1       c5       1
     x1       c1       1
     x1       OBJ      -2
    MARKER    'MARKER'                 'INTEND'
    MARKER    'MARKER'                 'INTORG'
     x2       c3       3
     x2       c4       2
     x2       c2       1
     x2       OBJ      -3
    MARKER    'MARKER'                 'INTEND'
RHS
    rhs       c3        16
    rhs       c4        12
    rhs       c5        8
    rhs       c1        0
    rhs       c2        0
RANGES
BOUNDS
 FR bounds    x2
 FR bounds    x1
ENDATA
